SumColouring/JavaBacktracker/RandomInstances/38_0.55_2.col
c File: instances/38_0.55_2.col
c
c Description: Random graph of size 38 vertices and P(0.5499999999999999) of edges between any two vertices.
p col 38 703
e 1 2
e 1 5
e 1 10
e 1 13
e 1 20
e 1 22
e 1 23
e 1 24
e 1 27
e 1 28
e 1 31
e 1 32
e 1 35
e 1 36
e 2 3
e 2 5
e 2 7
e 2 9
e 2 10
e 2 11
e 2 14
e 2 15
e 2 16
e 2 18
e 2 19
e 2 21
e 2 22
e 2 24
e 2 26
e 2 31
e 2 32
e 2 34
e 2 36
e 2 37
e 3 4
e 3 5
e 3 7
e 3 10
e 3 13
e 3 17
e 3 18
e 3 20
e 3 22
e 3 24
e 3 25
e 3 27
e 3 29
e 3 34
e 3 35
e 3 37
e 3 38
e 4 6
e 4 14
e 4 15
e 4 16
e 4 18
e 4 19
e 4 22
e 4 23
e 4 26
e 4 27
e 4 28
e 4 30
e 4 31
e 4 32
e 4 35
e 4 38
e 5 7
e 5 8
e 5 9
e 5 10
e 5 12
e 5 13
e 5 16
e 5 17
e 5 18
e 5 20
e 5 27
e 5 28
e 5 29
e 5 31
e 5 32
e 5 33
e 5 35
e 5 36
e 5 37
e 5 38
e 6 7
e 6 8
e 6 9
e 6 11
e 6 12
e 6 13
e 6 14
e 6 16
e 6 17
e 6 21
e 6 23
e 6 24
e 6 27
e 6 29
e 6 30
e 6 31
e 6 32
e 6 33
e 6 34
e 7 9
e 7 12
e 7 13
e 7 15
e 7 16
e 7 19
e 7 20
e 7 23
e 7 24
e 7 28
e 7 30
e 7 31
e 7 33
e 7 34
e 7 35
e 7 36
e 7 37
e 7 38
e 8 10
e 8 11
e 8 12
e 8 14
e 8 15
e 8 16
e 8 17
e 8 20
e 8 24
e 8 25
e 8 26
e 8 27
e 8 31
e 8 32
e 8 33
e 8 34
e 8 35
e 8 38
e 9 14
e 9 17
e 9 20
e 9 22
e 9 27
e 9 28
e 9 30
e 9 31
e 9 32
e 9 33
e 9 34
e 9 36
e 9 38
e 10 14
e 10 18
e 10 19
e 10 22
e 10 24
e 10 27
e 10 30
e 10 32
e 10 35
e 10 36
e 10 37
e 10 38
e 11 16
e 11 21
e 11 22
e 11 23
e 11 24
e 11 26
e 11 29
e 11 30
e 11 31
e 11 32
e 11 34
e 11 35
e 11 38
e 12 13
e 12 14
e 12 15
e 12 17
e 12 18
e 12 19
e 12 22
e 12 23
e 12 25
e 12 26
e 12 27
e 12 29
e 12 30
e 12 32
e 12 34
e 12 35
e 12 37
e 12 38
e 13 15
e 13 18
e 13 19
e 13 20
e 13 25
e 13 26
e 13 30
e 13 31
e 13 32
e 13 34
e 13 35
e 14 15
e 14 16
e 14 17
e 14 18
e 14 20
e 14 21
e 14 23
e 14 24
e 14 25
e 14 26
e 14 28
e 14 29
e 14 30
e 14 31
e 14 32
e 14 36
e 14 37
e 14 38
e 15 16
e 15 17
e 15 18
e 15 20
e 15 23
e 15 24
e 15 25
e 15 27
e 15 28
e 15 32
e 15 33
e 15 34
e 16 17
e 16 18
e 16 19
e 16 20
e 16 21
e 16 22
e 16 23
e 16 24
e 16 27
e 16 30
e 16 32
e 16 35
e 16 37
e 16 38
e 17 19
e 17 20
e 17 21
e 17 22
e 17 23
e 17 24
e 17 25
e 17 28
e 17 31
e 17 32
e 17 34
e 17 36
e 17 37
e 17 38
e 18 19
e 18 22
e 18 26
e 18 27
e 18 28
e 18 29
e 18 31
e 18 32
e 18 34
e 18 35
e 18 36
e 18 38
e 19 20
e 19 21
e 19 26
e 19 27
e 19 31
e 19 32
e 19 33
e 19 34
e 19 35
e 19 36
e 19 38
e 20 25
e 20 26
e 20 27
e 20 28
e 20 29
e 20 30
e 20 32
e 20 34
e 20 36
e 20 37
e 20 38
e 21 25
e 21 26
e 21 28
e 21 29
e 21 31
e 21 35
e 21 36
e 21 37
e 22 23
e 22 24
e 22 26
e 22 28
e 22 29
e 22 31
e 22 32
e 22 33
e 22 34
e 22 35
e 22 37
e 23 24
e 23 28
e 23 31
e 23 32
e 23 35
e 23 36
e 23 38
e 24 27
e 24 28
e 24 31
e 24 33
e 24 34
e 24 35
e 24 36
e 24 38
e 25 26
e 25 27
e 25 28
e 25 30
e 25 31
e 25 32
e 25 34
e 25 36
e 25 37
e 26 32
e 26 34
e 26 35
e 26 36
e 26 37
e 26 38
e 27 28
e 27 29
e 27 31
e 27 32
e 27 36
e 27 38
e 28 31
e 28 32
e 28 33
e 28 36
e 28 37
e 28 38
e 29 30
e 29 31
e 29 32
e 29 33
e 29 34
e 29 37
e 29 38
e 30 33
e 30 34
e 30 35
e 30 38
e 31 33
e 31 34
e 31 35
e 31 38
e 32 36
e 32 38
e 33 34
e 33 36
e 33 37
e 34 38
e 35 36
e 35 38
e 36 37
e 37 38